; benchmark generated from python API
(set-info :status unknown)
(declare-fun x_days () Int)
(assert
 (>= x_days (- 36525)))
(assert
 (<= x_days 36523))
(assert
 (>= x_days 8371))
(assert
 (let ((?x746 (+ x_days 730179)))
(let ((?x966 (mod ?x746 146097)))
(let ((?x950 (div ?x966 36524)))
(let ((?x810 (ite (<= 4 ?x950) 3 ?x950)))
(let ((?x763 (- ?x966 (* ?x810 36524))))
(let ((?x588 (mod ?x763 1461)))
(let ((?x483 (div ?x588 365)))
(let ((?x1058 (ite (<= 4 ?x483) 3 ?x483)))
(let ((?x637 (+ (+ (* (div ?x746 146097) 400) (* ?x810 100)) (* (div ?x763 1461) 4))))
(let ((?x2956 (+ (+ ?x637 ?x1058) 1)))
(let (($x820 (or (and (= (mod ?x2956 4) 0) (and (distinct (mod ?x2956 100) 0) true)) (= (mod ?x2956 400) 0))))
(let ((?x3484 (- ?x588 (* ?x1058 365))))
(let ((?x772 (ite $x820 31 31)))
(let (($x1710 (>= ?x3484 ?x772)))
(let ((?x630 (ite $x1710 (+ (- ?x3484 ?x772) 1) (+ (- ?x3484 (ite $x820 0 0)) 1))))
(let ((?x465 (ite $x820 60 59)))
(let (($x537 (>= ?x3484 ?x465)))
(let ((?x531 (ite $x820 91 90)))
(let (($x858 (>= ?x3484 ?x531)))
(let ((?x699 (ite $x858 (+ (- ?x3484 ?x531) 1) (ite $x537 (+ (- ?x3484 ?x465) 1) ?x630))))
(let ((?x830 (ite $x820 121 120)))
(let (($x799 (>= ?x3484 ?x830)))
(let ((?x1265 (ite $x820 152 151)))
(let (($x809 (>= ?x3484 ?x1265)))
(let ((?x3451 (ite $x809 (+ (- ?x3484 ?x1265) 1) (ite $x799 (+ (- ?x3484 ?x830) 1) ?x699))))
(let ((?x804 (ite $x820 182 181)))
(let (($x583 (>= ?x3484 ?x804)))
(let ((?x795 (ite $x820 213 212)))
(let (($x829 (>= ?x3484 ?x795)))
(let ((?x3157 (ite $x829 (+ (- ?x3484 ?x795) 1) (ite $x583 (+ (- ?x3484 ?x804) 1) ?x3451))))
(let ((?x793 (ite $x820 244 243)))
(let (($x2702 (>= ?x3484 ?x793)))
(let ((?x1048 (ite $x820 274 273)))
(let (($x842 (>= ?x3484 ?x1048)))
(let ((?x566 (ite $x842 (+ (- ?x3484 ?x1048) 1) (ite $x2702 (+ (- ?x3484 ?x793) 1) ?x3157))))
(let ((?x627 (ite $x820 305 304)))
(let (($x501 (>= ?x3484 ?x627)))
(let ((?x963 (ite $x820 335 334)))
(let (($x987 (>= ?x3484 ?x963)))
(let ((?x3024 (ite $x987 (+ (- ?x3484 ?x963) 1) (ite $x501 (+ (- ?x3484 ?x627) 1) ?x566))))
(let ((?x1127 (ite $x799 5 (ite $x858 4 (ite $x537 3 (ite $x1710 2 1))))))
(let ((?x469 (ite $x2702 9 (ite $x829 8 (ite $x583 7 (ite $x809 6 ?x1127))))))
(let ((?x417 (+ (ite $x987 12 (ite $x501 11 (ite $x842 10 ?x469))) (+ (* 0 12) 1))))
(let ((?x482 (- ?x417 1)))
(let ((?x669 (+ (mod ?x482 12) 1)))
(let ((?x1011 (ite (or (= ?x669 4) (= ?x669 6) (= ?x669 9) (= ?x669 11)) 30 31)))
(let (($x873 (and (= (mod (+ ?x2956 (+ 0 (div ?x482 12))) 4) 0) (and (distinct (mod (+ ?x2956 (+ 0 (div ?x482 12))) 100) 0) true))))
(let (($x776 (or $x873 (= (mod (+ ?x2956 (+ 0 (div ?x482 12))) 400) 0))))
(let ((?x488 (ite (= ?x669 2) (ite $x776 29 28) ?x1011)))
(let ((?x466 (ite (> 1 ?x3024) 1 (ite (> ?x3024 ?x488) ?x488 ?x3024))))
(let ((?x797 (ite (> 1 ?x466) 1 (ite (> ?x466 ?x488) ?x488 ?x466))))
(let ((?x1871 (ite (= 2 ?x669) (ite $x776 31 31) (ite (= 1 ?x669) (ite $x776 0 0) 0))))
(let ((?x940 (ite (= 4 ?x669) (ite $x776 91 90) (ite (= 3 ?x669) (ite $x776 60 59) ?x1871))))
(let ((?x916 (ite (= 6 ?x669) (ite $x776 152 151) (ite (= 5 ?x669) (ite $x776 121 120) ?x940))))
(let ((?x863 (ite (= 8 ?x669) (ite $x776 213 212) (ite (= 7 ?x669) (ite $x776 182 181) ?x916))))
(let ((?x496 (ite (= 10 ?x669) (ite $x776 274 273) (ite (= 9 ?x669) (ite $x776 244 243) ?x863))))
(let ((?x898 (ite (= 12 ?x669) (ite $x776 335 334) (ite (= 11 ?x669) (ite $x776 305 304) ?x496))))
(let ((?x814 (+ (* 365 (- (+ ?x2956 (+ 0 (div ?x482 12))) 1)) (div (- (+ ?x2956 (+ 0 (div ?x482 12))) 1) 4))))
(let ((?x1144 (+ (- ?x814 (div (- (+ ?x2956 (+ 0 (div ?x482 12))) 1) 100)) (div (- (+ ?x2956 (+ 0 (div ?x482 12))) 1) 400))))
(let ((?x516 (+ (+ (- (+ (+ ?x1144 ?x898) (- ?x797 1)) 730179) 0) 730179)))
(let ((?x702 (mod ?x516 146097)))
(let ((?x1060 (div ?x702 36524)))
(let ((?x843 (ite (<= 4 ?x1060) 3 ?x1060)))
(let ((?x1018 (- ?x702 (* ?x843 36524))))
(let ((?x1049 (mod ?x1018 1461)))
(let ((?x800 (div ?x1049 365)))
(let ((?x734 (ite (<= 4 ?x800) 3 ?x800)))
(let ((?x427 (+ (+ (* (div ?x516 146097) 400) (* ?x843 100)) (* (div ?x1018 1461) 4))))
(let ((?x1119 (+ (+ ?x427 ?x734) 1)))
(let (($x1034 (or (and (= (mod ?x1119 4) 0) (and (distinct (mod ?x1119 100) 0) true)) (= (mod ?x1119 400) 0))))
(let ((?x3231 (- ?x1049 (* ?x734 365))))
(let ((?x726 (ite $x1034 31 31)))
(let (($x1157 (>= ?x3231 ?x726)))
(let ((?x761 (ite $x1157 (+ (- ?x3231 ?x726) 1) (+ (- ?x3231 (ite $x1034 0 0)) 1))))
(let ((?x415 (ite $x1034 60 59)))
(let (($x3029 (>= ?x3231 ?x415)))
(let ((?x3197 (ite $x1034 91 90)))
(let (($x2703 (>= ?x3231 ?x3197)))
(let ((?x533 (ite $x2703 (+ (- ?x3231 ?x3197) 1) (ite $x3029 (+ (- ?x3231 ?x415) 1) ?x761))))
(let ((?x953 (ite $x1034 121 120)))
(let (($x620 (>= ?x3231 ?x953)))
(let ((?x631 (ite $x1034 152 151)))
(let (($x643 (>= ?x3231 ?x631)))
(let ((?x1122 (ite $x643 (+ (- ?x3231 ?x631) 1) (ite $x620 (+ (- ?x3231 ?x953) 1) ?x533))))
(let ((?x486 (ite $x1034 182 181)))
(let (($x3134 (>= ?x3231 ?x486)))
(let ((?x534 (ite $x1034 213 212)))
(let (($x2915 (>= ?x3231 ?x534)))
(let ((?x3271 (ite $x2915 (+ (- ?x3231 ?x534) 1) (ite $x3134 (+ (- ?x3231 ?x486) 1) ?x1122))))
(let ((?x515 (ite $x1034 244 243)))
(let (($x3022 (>= ?x3231 ?x515)))
(let ((?x576 (ite $x1034 274 273)))
(let (($x1017 (>= ?x3231 ?x576)))
(let ((?x503 (ite $x1017 (+ (- ?x3231 ?x576) 1) (ite $x3022 (+ (- ?x3231 ?x515) 1) ?x3271))))
(let ((?x506 (ite $x1034 305 304)))
(let (($x757 (>= ?x3231 ?x506)))
(let ((?x739 (ite $x1034 335 334)))
(let (($x2743 (>= ?x3231 ?x739)))
(let ((?x948 (ite $x2743 (+ (- ?x3231 ?x739) 1) (ite $x757 (+ (- ?x3231 ?x506) 1) ?x503))))
(let (($x493 (= 0 0)))
(let (($x806 (= (mod (ite $x493 (+ ?x2956 (+ 0 (div ?x482 12))) ?x1119) 400) 0)))
(let (($x1028 (and (distinct (mod (ite $x493 (+ ?x2956 (+ 0 (div ?x482 12))) ?x1119) 100) 0) true)))
(let (($x490 (= (mod (ite $x493 (+ ?x2956 (+ 0 (div ?x482 12))) ?x1119) 4) 0)))
(let (($x458 (or (and $x490 $x1028) $x806)))
(let ((?x489 (ite $x620 5 (ite $x2703 4 (ite $x3029 3 (ite $x1157 2 1))))))
(let ((?x1136 (ite $x3022 9 (ite $x2915 8 (ite $x3134 7 (ite $x643 6 ?x489))))))
(let ((?x405 (ite $x493 ?x669 (ite $x2743 12 (ite $x757 11 (ite $x1017 10 ?x1136))))))
(let ((?x825 (ite (= 2 ?x405) (ite $x458 31 31) (ite (= 1 ?x405) (ite $x458 0 0) 0))))
(let ((?x3230 (ite (= 4 ?x405) (ite $x458 91 90) (ite (= 3 ?x405) (ite $x458 60 59) ?x825))))
(let ((?x740 (ite (= 6 ?x405) (ite $x458 152 151) (ite (= 5 ?x405) (ite $x458 121 120) ?x3230))))
(let ((?x1148 (ite (= 8 ?x405) (ite $x458 213 212) (ite (= 7 ?x405) (ite $x458 182 181) ?x740))))
(let ((?x861 (ite (= 10 ?x405) (ite $x458 274 273) (ite (= 9 ?x405) (ite $x458 244 243) ?x1148))))
(let ((?x3450 (ite (= 12 ?x405) (ite $x458 335 334) (ite (= 11 ?x405) (ite $x458 305 304) ?x861))))
(let ((?x497 (+ ?x2956 (+ 0 (div ?x482 12)))))
(let ((?x673 (ite $x493 ?x497 ?x1119)))
(let ((?x2097 (- ?x673 1)))
(let ((?x1544 (+ (- (+ (* 365 ?x2097) (div ?x2097 4)) (div ?x2097 100)) (div ?x2097 400))))
(<= (- (+ (+ ?x1544 ?x3450) (- (ite $x493 ?x797 ?x948) 1)) 730179) 8400)))))))))))))))))))))))))))))))))))))))))))))))))))))))))))))))))))))))))))))))))))))))))))))))))))))))))))))))))))))))
(check-sat)
